sing20141231.12
TTAA  81121 48698
99007 28050 04007 00076 26846 36012 92760 21217 00517
85490 17820 32007 70130 09009 28014 50586 05119 15511
40758 14745 34012 30969 29939 08017 25096 40538 10530
20244 53150 12542 15422 68542 13047 10658 77350 34007
88123 77149 10073
77119 10078 43681=
TTCC  81127 48698
70862 78975 26524
88999
77999=
TTDD  8112/ 48698
11951 76950 22889 76976 33794 78175 44780 77176 55720
78175 66662 79175 77630 78375 88587 76776 99580 76376
11560 75575 22548 75142
21212 11984 31513 22962 31522 33942 31023 44922 32021
55902 32519 66864 33016 77826 34517 88789 26509 99739
24021 11724 25524 22709 26027 33694 27022 44659 28520
55648 28018 66638 28515 77618 25011 88608 28512 99599
28508 11589 27503 22572 03003 33563 07507 44548 05517=
